%nprocshared=56
%mem=1GB
#p td=(nstates=30) apfd/6-311+g(2d,p) SCRF=(IEFPCM,Solvent=Methanol) integral(ultrafinegrid)

Template file

0 1
[GEOMETRY]

