%nprocshared=56
%mem=56GB
# B3LYP/def2TZVP NMR scrf(SMD,solvent=Chloroform)

Template file

0 1
[GEOMETRY]


