%nprocshared=8
%mem=1GB
# apfd/6-311++g(2d,2p) polar=optrot cphf=rdfreq

Template file

0 1
[GEOMETRY]

355nm 633nm
 

